100 22167830
15 80 24 5 17 9 62 21 3 59 79 75 72 74 6 81 76 93 95 30 10 13 7 49 47 39 37 36 68 20 35 14 12 19 56 89 22 45 28 48 33 78 11 31 66 8 61 25 71 63 67 50 98 27 65 60 64 23 73 57 55 43 82 40 96 58 42 94 26 44 2 18 1 52 99 77 86 70 16 34 97 41 83 46 32 4 90 69 85 54 92 38 51 87 100 84 53 91 29 88 
